Route #1: 144 18 101 27 108 102 100 135 150 98 45 81 164 34 65 110 36 105 80
Route #2: 76 142 19 50 40 31 24 133 70 141 39 11 82 120 112 95 75 160 21
Route #3: 152 121 79 3 130 143 71 113 60 132 154 139 23 54 42 87 124
Route #4: 99 63 103 86 5
Route #5: 109 16 28 29 2 114 136 37 84 146 51 10 72 32 53 59 158
Route #6: 44 30 92 55 38 151 131 149 4 153 116 148 97 115 156 85 52 46
Route #7: 8 129 145 163 88 111 122 1 13 77 57 12 104 107 64 49 20 138
Route #8: 134 119 140 15 159 17 96 14 128 123 62 162 68 48 9 157 6
Route #9: 35 26 165 78 41 74 33 106 166 94 90 161 91 147 117 43 66 125
Route #10: 137 73 22 83 69 155 56 58 61 127 126 47 118 93 25 7 89 67
